16
1,2-Difluorocubane
C    0.00000    0.77999   -1.58996
C    1.10590    0.78235   -0.48755
C   -1.10590    0.78235   -0.48755
C    0.00000   -0.77999   -1.58996
C   -1.10590   -0.78235   -0.48755
C    1.10590   -0.78235   -0.48755
C    0.00000   -0.77422    0.59497
C    0.00000    0.77422    0.59497
H    0.00000    1.40715   -2.46894
H    1.98578    1.40801   -0.46857
H   -1.98578    1.40801   -0.46857
H    0.00000   -1.40715   -2.46894
H   -1.98578   -1.40801   -0.46857
H    1.98578   -1.40801   -0.46857
F    0.00000   -1.54548    1.69185
F    0.00000    1.54548    1.69185
