16
1,4-Difluorocubane
C    0.00000    1.28016    0.44988
C   -1.10865    0.64008   -0.44988
C    1.10865    0.64008   -0.44988
C    0.00000    0.00000    1.31629
C    1.10865   -0.64008    0.44988
C   -1.10865   -0.64008    0.44988
C    0.00000   -1.28016   -0.44988
C    0.00000    0.00000   -1.31629
H    0.00000    2.29171    0.82700
H   -1.98468    1.14586   -0.82700
H    1.98468    1.14586   -0.82700
F    0.00000    0.00000    2.66117
H    1.98468   -1.14586    0.82700
H   -1.98468   -1.14586    0.82700
H    0.00000   -2.29171   -0.82700
F    0.00000    0.00000   -2.66117
