57
Iron phthalocyanine
Fe      0.00000       0.00000       0.00000
N       1.91425      -0.00000       0.00000
N      -0.00000       1.91425       0.00000
N      -1.91425       0.00000       0.00000
N       0.00000      -1.91425       0.00000
N       2.38589       2.38589       0.00000
N      -2.38589       2.38589       0.00000
N      -2.38589      -2.38589       0.00000
N       2.38589      -2.38589       0.00000
C       2.73926       1.11359       0.00000
C      -1.11359       2.73926       0.00000
C      -2.73926      -1.11359       0.00000
C       1.11359      -2.73926       0.00000
C       2.73926      -1.11359       0.00000
C       1.11359       2.73926       0.00000
C      -2.73926       1.11359       0.00000
C      -1.11359      -2.73926       0.00000
C       4.13364       0.70161       0.00000
C      -0.70161       4.13364       0.00000
C      -4.13364      -0.70161       0.00000
C       0.70161      -4.13364       0.00000
C       4.13364      -0.70161       0.00000
C       0.70161       4.13364       0.00000
C      -4.13364       0.70161       0.00000
C      -0.70161      -4.13364       0.00000
C       5.32712       1.42894       0.00000
C      -1.42894       5.32712       0.00000
C      -5.32712      -1.42894       0.00000
C       1.42894      -5.32712       0.00000
C       5.32712      -1.42894       0.00000
C       1.42894       5.32712       0.00000
C      -5.32712       1.42894       0.00000
C      -1.42894      -5.32712       0.00000
C       6.52276       0.70581       0.00000
C      -0.70581       6.52276       0.00000
C      -6.52276      -0.70581       0.00000
C       0.70581      -6.52276       0.00000
C       6.52276      -0.70581       0.00000
C       0.70581       6.52276       0.00000
C      -6.52276       0.70581       0.00000
C      -0.70581      -6.52276       0.00000
H       5.31666       2.51936       0.00000
H      -2.51936       5.31666       0.00000
H      -5.31666      -2.51936       0.00000
H       2.51936      -5.31666       0.00000
H       5.31666      -2.51936       0.00000
H       2.51936       5.31666       0.00000
H      -5.31666       2.51936       0.00000
H      -2.51936      -5.31666       0.00000
H       7.47641       1.23855       0.00000
H       7.47641      -1.23855       0.00000
H      -7.47641       1.23855       0.00000
H      -7.47641      -1.23855       0.00000
H      -1.23855       7.47641       0.00000
H       1.23855       7.47641       0.00000
H       1.23855      -7.47641       0.00000
H      -1.23855      -7.47641       0.00000
