37
Iron porphyrin
Fe      0.000000       0.000000       0.000000
N       0.000000      -1.965094       0.000000
N       1.965094      -0.000000       0.000000
N      -0.000000       1.965094       0.000000
N      -1.965094       0.000000       0.000000
C       1.092460      -2.810859       0.000000
C      -1.092460      -2.810859       0.000000
C       1.092460       2.810859       0.000000
C      -1.092460       2.810859       0.000000
C       2.810859      -1.092460       0.000000
C       2.810859       1.092460       0.000000
C      -2.810859      -1.092460       0.000000
C      -2.810859       1.092460       0.000000
C       0.680021      -4.189032       0.000000
C      -0.680021      -4.189032       0.000000
C       0.680021       4.189032       0.000000
C      -0.680021       4.189032       0.000000
C       4.189032      -0.680021       0.000000
C       4.189032       0.680021       0.000000
C      -4.189032      -0.680021       0.000000
C      -4.189032       0.680021       0.000000
C       2.412552      -2.412552       0.000000
C      -2.412552      -2.412552       0.000000
C      -2.412552       2.412552       0.000000
C       2.412552       2.412552       0.000000
H       1.362225      -5.032050       0.000000
H      -1.362225      -5.032050       0.000000
H       1.362225       5.032050       0.000000
H      -1.362225       5.032050       0.000000
H       5.032050      -1.362225       0.000000
H       5.032050       1.362225       0.000000
H      -5.032050      -1.362225       0.000000
H      -5.032050       1.362225       0.000000
H       3.181496      -3.181496       0.000000
H      -3.181496      -3.181496       0.000000
H      -3.181496       3.181496       0.000000
H       3.181496       3.181496       0.000000
