52
Octamethylsilsesquioxane
Si    1.5897    1.5897    1.5897
Si   -1.5897   -1.5897    1.5897
Si   -1.5897    1.5897   -1.5897
Si    1.5897   -1.5897   -1.5897
Si   -1.5897    1.5897    1.5897
Si    1.5897   -1.5897    1.5897
Si    1.5897    1.5897   -1.5897
Si   -1.5897   -1.5897   -1.5897
O    1.8929   -0.0000    1.8929
O    0.0000    1.8929    1.8929
O   -1.8929    0.0000    1.8929
O   -0.0000   -1.8929    1.8929
O   -0.0000    1.8929   -1.8929
O   -1.8929    0.0000   -1.8929
O    0.0000   -1.8929   -1.8929
O    1.8929    0.0000   -1.8929
O   -1.8929    1.8929    0.0000
O   -1.8929   -1.8929   -0.0000
O    1.8929   -1.8929    0.0000
O    1.8929    1.8929   -0.0000
C    2.5573    2.5573    2.5573
C   -2.5573   -2.5573    2.5573
C   -2.5573    2.5573   -2.5573
C    2.5573   -2.5573   -2.5573
C   -2.5573    2.5573    2.5573
C    2.5573   -2.5573    2.5573
C    2.5573    2.5573   -2.5573
C   -2.5573   -2.5573   -2.5573
H    3.6148    2.3629    2.3629
H    2.3629    3.6148    2.3629
H    2.3629    2.3629    3.6148
H   -3.6148   -2.3629    2.3629
H   -2.3629   -3.6148    2.3629
H   -2.3629   -2.3629    3.6148
H   -3.6148    2.3629   -2.3629
H   -2.3629    3.6148   -2.3629
H   -2.3629    2.3629   -3.6148
H    3.6148   -2.3629   -2.3629
H    2.3629   -3.6148   -2.3629
H    2.3629   -2.3629   -3.6148
H   -2.3629    2.3629    3.6148
H   -2.3629    3.6148    2.3629
H   -3.6148    2.3629    2.3629
H    2.3629   -2.3629    3.6148
H    2.3629   -3.6148    2.3629
H    3.6148   -2.3629    2.3629
H    2.3629    2.3629   -3.6148
H    2.3629    3.6148   -2.3629
H    3.6148    2.3629   -2.3629
H   -2.3629   -2.3629   -3.6148
H   -2.3629   -3.6148   -2.3629
H   -3.6148   -2.3629   -2.3629
