20
Pentaprismane
C      1.3270     -0.0000      0.7858
C      0.4101     -1.2621      0.7858
C     -1.0736     -0.7800      0.7858
C     -1.0736      0.7800      0.7858
C      0.4101      1.2621      0.7858
C      1.3270      0.0000     -0.7858
C      0.4101     -1.2621     -0.7858
C     -1.0736     -0.7800     -0.7858
C     -1.0736      0.7800     -0.7858
C      0.4101      1.2621     -0.7858
H      2.2374      0.0000      1.3848
H      0.6914     -2.1279      1.3848
H     -1.8101     -1.3151      1.3848
H     -1.8101      1.3151      1.3848
H      0.6914      2.1279      1.3848
H      2.2374      0.0000     -1.3848
H      0.6914     -2.1279     -1.3848
H     -1.8101     -1.3151     -1.3848
H     -1.8101      1.3151     -1.3848
H      0.6914      2.1279     -1.3848
