28
Tetrairidium dodecacarbonyl
Ir     0.9717      0.9717      0.9717
Ir    -0.9717     -0.9717      0.9717
Ir    -0.9717      0.9717     -0.9717
Ir     0.9717     -0.9717     -0.9717
C      2.1945      2.1945      0.1106
C      0.1106      2.1945      2.1945
C      2.1945      0.1106      2.1945
C     -2.1945     -2.1945      0.1106
C     -0.1106     -2.1945      2.1945
C     -2.1945     -0.1106      2.1945
C     -2.1945      0.1106     -2.1945
C     -2.1945      2.1945     -0.1106
C     -0.1106      2.1945     -2.1945
C      0.1106     -2.1945     -2.1945
C      2.1945     -0.1106     -2.1945
C      2.1945     -2.1945     -0.1106
O      2.9160      2.9160     -0.3945
O     -0.3945      2.9160      2.9160
O      2.9160     -0.3945      2.9160
O     -2.9160     -2.9160     -0.3945
O      0.3945     -2.9160      2.9160
O     -2.9160      0.3945      2.9160
O     -2.9160     -0.3945     -2.9160
O     -2.9160      2.9160      0.3945
O      0.3945      2.9160     -2.9160
O     -0.3945     -2.9160     -2.9160
O      2.9160      0.3945     -2.9160
O      2.9160     -2.9160      0.3945
